SYSTEM = Dpgen
PREC = Accurate
ISART = 0
ICHARG = 2
ENCUT = 560
NELM = 100
NELMIN = 6
NELMDL = -5
EDIFF = 1e-06
LREAL = False
ALGO = Normal
IBRION = 2
POTIM = 0.001
ISIF = 6
# ISYM = 0
NSW = 50
ISMEAR = 1
SIGMA = 0.20
LWAVE = False
LCHARG = False
NPAR = 4
KPAR = 1
KSPACING = 0.10
KGAMMA = False
SYMPREC = 1e-10
PSTRESS = 200.0

METAGGA=SCAN
